Optimal - objective value 18.00000000
     19 z_0_0_1_8                1                     0.2
     33 z_0_0_3_0                1                       0
     59 z_0_1_0_4                1                    -0.5
     66 z_0_1_1_0                1                    -0.5
     87 z_0_1_3_1                1                    -0.5
    125 z_0_2_2_0                1                       0
    149 z_0_2_4_2                1                   -0.25
    162 z_0_5_0_4                1                       0
    205 z_0_5_4_6                1                       0
    231 z_0_7_1_10               1                       0
    242 z_0_7_2_10               1                       0
    282 z_1_0_1_6                1                     0.4
    306 z_1_0_3_8                1                       0
    346 z_1_1_2_6                1         0.833333333333333
    395 z_1_2_2_5                1                    -0.2
    413 z_1_2_4_1                1                    -0.2
    455 z_1_3_3_1                1                  -0.125
    465 z_1_3_4_0                1                    -0.5
    495 z_1_6_1_10               1                       0
    543 z_1_7_1_8                1                       0
    554 z_1_7_2_8                1                       0
    600 z_2_0_1_10               1                       0
    613 z_2_0_3_1                1                    -0.2
    637 z_2_1_0_3                1                       0
    659 z_2_1_2_5                1                       0
    675 z_2_1_3_10               1                     0.9
    705 z_2_3_2_0                1                  0.0625
    716 z_2_3_3_0                1                  0.0625
    735 z_2_3_4_8                1                  1.4375
    752 z_2_4_1_5                1                 -0.3125
    791 z_2_5_0_3                1                       0
    831 z_2_5_4_2                1                       0
    859 z_2_6_1_8                1                       0
    867 z_2_6_2_5                1                       0
    892 z_3_1_0_2                1                       0
    905 z_3_1_1_4                1                       0
    914 z_3_1_2_4                1                       0
    921 z_3_1_3_0                1                       0
    967 z_3_2_2_7                1                   0.125
   1026 z_3_3_3_2                1                       0
   1041 z_3_3_4_6                1                   0.875
   1061 z_3_6_1_6                1                       0
   1068 z_3_6_2_2                1                       0
   1099 z_4_1_0_5                1                       0
   1106 z_4_1_1_1                1                       0
   1116 z_4_1_2_2                1                       0
   1127 z_4_1_3_2                1                     0.5
   1173 z_4_2_2_9                1                       0
   1195 z_4_2_4_9                1                   0.625
   1218 z_4_3_2_1                1                  0.8125
   1231 z_4_3_3_3                1                   -0.25
   1253 z_4_5_0_5                1                       0
   1318 z_5_1_1_7                1         -0.416666666666667
   1323 z_5_1_2_3                1         -0.416666666666667
   1334 z_5_1_3_3                1         -0.0833333333333333
   1373 z_5_3_2_2                1                       0
   1392 z_5_3_3_10               1                  -0.125
   1432 z_5_6_2_8                1         -0.666666666666667
   1469 z_5_7_1_6                1                       0
   1480 z_5_7_2_6                1                       0
   1508 w_0_1                    1                       0
   1510 w_0_3                    1                       1
   1512 w_1_0                    1                       1
   1513 w_1_1                    1                       1
   1514 w_1_2                    1         0.166666666666667
   1515 w_1_3                    1                       0
   1519 w_2_2                    1                       1
   1521 w_2_4                    1                       0
   1524 w_3_2                    1                       0
   1525 w_3_3                    1                       1
   1526 w_3_4                    1                      -1
   1528 w_4_1                    1                       1
   1532 w_5_0                    1                       1
   1536 w_5_4                    1                       1
   1538 w_6_1                    1                       1
   1539 w_6_2                    1                       1
   1543 w_7_1                    1                       0
   1544 w_7_2                    1                       1
   1553 o_0_1_0                  1                       0
   1554 o_0_1_1    1.00000000000071                       0
   1555 o_0_1_2    1.00000000000071                       0
   1556 o_0_1_3    1.00000000000071                       0
   1557 o_0_1_4    1.00000000000071                       0
   1558 o_0_1_5    1.00000000000071                       0
   1565 o_0_3_0                  1                       0
   1566 o_0_3_1                  1                       0
   1567 o_0_3_2     1.000000000001                       0
   1568 o_0_3_3     1.000000000001                       0
   1579 o_1_0_2                  1                       0
   1580 o_1_0_3                  1                       0
   1581 o_1_0_4     0.999999999999                       0
   1582 o_1_0_5                  1                       0
   1584 o_1_1_1     0.999999999999                       0
   1585 o_1_1_2    1.0000000000005                       0
   1586 o_1_1_3     1.000000000001                       0
   1587 o_1_1_4                  1                       0
   1588 o_1_1_5                  1                       0
   1589 o_1_2_0                  1                       0
   1590 o_1_2_1                  1                       0
   1591 o_1_2_2                  1                       0
   1592 o_1_2_3                  1                       0
   1593 o_1_2_4                  1                       0
   1594 o_1_2_5                  1                       0
   1595 o_1_3_0                  1                       0
   1596 o_1_3_1                  1                       0
   1597 o_1_3_2                  1                       0
   1598 o_1_3_3                  1                       0
   1599 o_1_3_4                  1                       0
   1600 o_1_3_5                  1                       0
   1619 o_2_2_0                  1                       0
   1620 o_2_2_1                  1                       0
   1621 o_2_2_2                  1                       0
   1622 o_2_2_3                  1                       0
   1623 o_2_2_4                  1                       0
   1624 o_2_2_5     1.000000000001                       0
   1632 o_2_4_1                  1                       0
   1633 o_2_4_2                  1                       0
   1634 o_2_4_3                  1                       0
   1635 o_2_4_4                  1                       0
   1649 o_3_2_0                  1                       0
   1650 o_3_2_1                  1                       0
   1651 o_3_2_2                  1                       0
   1655 o_3_3_0    1.00000000000701                       0
   1656 o_3_3_1    1.00000000000701                       0
   1657 o_3_3_2    0.999999999998264                       0
   1658 o_3_3_3    1.00000000000527                       0
   1659 o_3_3_4                  1                       0
   1660 o_3_3_5    1.00000000000091                       0
   1661 o_3_4_0                  1                       0
   1662 o_3_4_1                  1                       0
   1663 o_3_4_2                  1                       0
   1664 o_3_4_3                  1                       0
   1665 o_3_4_4                  1                       0
   1673 o_4_1_0                  1                       0
   1674 o_4_1_1                  1                       0
   1699 o_5_0_2                  1                       0
   1700 o_5_0_3                  1                       0
   1701 o_5_0_4     1.000000000001                       0
   1702 o_5_0_5     1.000000000001                       0
   1721 o_5_4_0     1.000000000001                       0
   1722 o_5_4_1                  1                       0
   1723 o_5_4_2     0.999999999999                       0
   1733 o_6_1_0                  1                       0
   1734 o_6_1_1     1.000000000003                       0
   1735 o_6_1_2     1.000000000003                       0
   1736 o_6_1_3                  1                       0
   1737 o_6_1_4                  1                       0
   1738 o_6_1_5                  1                       0
   1740 o_6_2_1                  1                       0
   1741 o_6_2_2                  1                       0
   1742 o_6_2_3                  1                       0
   1743 o_6_2_4     1.000000000001                       0
   1744 o_6_2_5     1.000000000003                       0
   1763 o_7_1_0     1.000000000001                       0
   1764 o_7_1_1                  1                       0
   1765 o_7_1_2                  1                       0
   1766 o_7_1_3                  1                       0
   1767 o_7_1_4                  1                       0
   1768 o_7_1_5                  1                       0
   1769 o_7_2_0    0.99999999999925                       0
   1770 o_7_2_1                  1                       0
   1771 o_7_2_2     0.999999999999                       0
   1772 o_7_2_3     1.000000000001                       0
   1773 o_7_2_4                  1                       0
   1774 o_7_2_5                  1                       0
   1791 e_0_0_4                  1                       0
   1792 e_0_0_5                  1                       0
   1794 e_0_1_1                  1                       0
   1795 e_0_1_2                  1                       0
   1796 e_0_1_3                  1                       0
   1797 e_0_1_4                  1                       0
   1798 e_0_1_5                  1                       0
   1799 e_0_2_0                  1                       0
   1803 e_0_2_4                  1                       0
   1804 e_0_2_5                  1                       0
   1805 e_0_3_0                  1                       0
   1806 e_0_3_1                  1                       0
   1811 e_0_4_0                  1                       0
   1812 e_0_4_1                  1                       0
   1813 e_0_4_2                  1                       0
   1823 e_1_1_0                  1                       0
   1824 e_1_1_1                  1                       0
   1825 e_1_1_2                  1                       0
   1826 e_1_1_3                  1                       0
   1827 e_1_1_4                  1                       0
   1828 e_1_1_5                  1                       0
   1829 e_1_2_0                  1                       0
   1830 e_1_2_1                  1                       0
   1831 e_1_2_2                  1                       0
   1832 e_1_2_3     0.999999999999                       0
   1834 e_1_2_5                  1                       0
   1836 e_1_3_1                  1                       0
   1837 e_1_3_2                  1                       0
   1838 e_1_3_3                  1                       0
   1841 e_1_4_0                  1                       0
   1842 e_1_4_1                  1                       0
   1850 e_2_0_3                  1                       0
   1851 e_2_0_4                  1                       0
   1853 e_2_1_0                  1                       0
   1854 e_2_1_1                  1                       0
   1855 e_2_1_2                  1                       0
   1856 e_2_1_3                  1                       0
   1857 e_2_1_4    1.00000000000665                       0
   1858 e_2_1_5                  1                       0
   1859 e_2_2_0                  1                       0
   1860 e_2_2_1                  1                       0
   1861 e_2_2_2                  1                       0
   1864 e_2_2_5                  1                       0
   1865 e_2_3_0                  1                       0
   1866 e_2_3_1    0.999999999995333                       0
   1869 e_2_3_4                  1                    -0.4
   1870 e_2_3_5                  1                       0
   1873 e_2_4_2                  1                       0
   1874 e_2_4_3                  1                       0
   1875 e_2_4_4                  1                 -0.3125
   1879 e_3_0_2    0.999999999995632                       0
   1883 e_3_1_0                  1                       0
   1884 e_3_1_1                  1                       0
   1888 e_3_1_5                  1                       0
   1890 e_3_2_1                  1                       0
   1891 e_3_2_2                  1                       0
   1892 e_3_2_3                  1                       0
   1893 e_3_2_4                  1                       0
   1895 e_3_3_0                  1                       0
   1897 e_3_3_2                  1                       0
   1902 e_3_4_1                  1                       0
   1903 e_3_4_2                  1                       0
   1909 e_4_0_2                  1                       0
   1910 e_4_0_3     0.999999999999                       0
   1912 e_4_0_5                  1                       0
   1915 e_4_1_2                  1                       0
   1920 e_4_2_1                  1                       0
   1921 e_4_2_2                  1                       0
   1922 e_4_2_3                  1                       0
   1923 e_4_2_4                  1                  -0.375
   1927 e_4_3_2                  1                       0
   1928 e_4_3_3    1.00000000000701                       0
   1934 e_4_4_3                  1                       0
   1935 e_4_4_4     1.000000000001                       0
   1943 e_5_1_0    0.999999999994815                       0
   1944 e_5_1_1                  1                       0
   1946 e_5_1_3                  1                       0
   1947 e_5_1_4                  1                       0
   1949 e_5_2_0                  1                       0
   1950 e_5_2_1                  1                       0
   1951 e_5_2_2                  1                       0
   1952 e_5_2_3                  1                       0
   1953 e_5_2_4                  1                       0
   1954 e_5_2_5                  1                       0
   1958 e_5_3_3                  1         -0.333333333333333
   1959 e_5_3_4                  1                       0
   1960 e_5_3_5                  1                       0
   1968 af_0_0_0                 1                       0
   1977 bf_0_0_5                 1                       0
   1980 af_0_1_0                 1                       0
   1981 bf_0_1_1                 1                       0
   1982 af_0_1_1   1.00000000000071                       0
   1983 bf_0_1_2   1.00000000000071                       0
   1984 af_0_1_2   1.00000000000071                       0
   1985 bf_0_1_3   1.00000000000071                       0
   1986 af_0_1_3   1.00000000000071                       0
   1987 bf_0_1_4   1.00000000000071                       0
   1988 af_0_1_4   1.00000000000071                       0
   1989 bf_0_1_5                 1                       0
   2004 af_0_3_0    1.000000000001                       0
   2005 bf_0_3_1                 1                       0
   2006 af_0_3_1    1.000000000001                       0
   2007 bf_0_3_2                 1                       0
   2008 af_0_3_2    1.000000000001                       0
   2009 bf_0_3_3                 1                       0
   2011 bf_0_3_4    0.999999999999                       0
   2013 bf_0_3_5                 1                       0
   2028 af_1_0_0                 1                       0
   2030 af_1_0_1   0.9999999999985                       0
   2032 af_1_0_2                 1                       0
   2033 bf_1_0_3                 1                       0
   2034 af_1_0_3    0.999999999999                       0
   2035 bf_1_0_4                 1                       0
   2036 af_1_0_4                 1                       0
   2037 bf_1_0_5                 1                       0
   2040 af_1_1_0                 1                       0
   2042 af_1_1_1   1.0000000000005                       0
   2043 bf_1_1_2                 1                       0
   2044 af_1_1_2    0.999999999999                       0
   2045 bf_1_1_3    1.000000000001                       0
   2046 af_1_1_3                 1                       0
   2047 bf_1_1_4                 1                       0
   2048 af_1_1_4                 1                       0
   2049 bf_1_1_5                 1                       0
   2052 af_1_2_0                 1                       0
   2053 bf_1_2_1    1.000000000001                       0
   2054 af_1_2_1    0.999999999999                       0
   2055 bf_1_2_2                 1                       0
   2056 af_1_2_2                 1                       0
   2057 bf_1_2_3                 1                       0
   2058 af_1_2_3                 1                       0
   2059 bf_1_2_4                 1                       0
   2060 af_1_2_4    1.000000000001                       0
   2061 bf_1_2_5                 1                       0
   2064 af_1_3_0                 1                       0
   2065 bf_1_3_1                 1                       0
   2066 af_1_3_1                 1                       0
   2067 bf_1_3_2    0.999999999999                       0
   2068 af_1_3_2                 1                       0
   2069 bf_1_3_3                 1                       0
   2070 af_1_3_3                 1                       0
   2071 bf_1_3_4                 1                       0
   2072 af_1_3_4                 1                       0
   2073 bf_1_3_5                 1                       0
   2112 af_2_2_0                 1                       0
   2113 bf_2_2_1                 1                   -0.25
   2114 af_2_2_1                 1                       0
   2115 bf_2_2_2                 1                  -0.125
   2116 af_2_2_2                 1                       0
   2117 bf_2_2_3    1.000000000001                       0
   2118 af_2_2_3                 1                       0
   2119 bf_2_2_4    0.999999999999                       0
   2120 af_2_2_4                 1                       0
   2121 bf_2_2_5                 1                       0
   2136 af_2_4_0                 1                       0
   2138 af_2_4_1                 1                       0
   2139 bf_2_4_2                 1                       0
   2140 af_2_4_2    1.000000000001                       0
   2141 bf_2_4_3                 1                       0
   2142 af_2_4_3                 1                       0
   2143 bf_2_4_4                 1                       0
   2145 bf_2_4_5                 1                       0
   2172 af_3_2_0                 1                       0
   2173 bf_3_2_1    1.000000000013                       0
   2174 af_3_2_1                 1                       0
   2175 bf_3_2_2    1.000000000012                       0
   2177 bf_3_2_3                 1                       0
   2179 bf_3_2_4    1.000000000001                       0
   2181 bf_3_2_5                 1                       0
   2184 af_3_3_0   1.00000000000201                       0
   2185 bf_3_3_1                 1                       0
   2186 af_3_3_1   1.00000000000327                       0
   2187 bf_3_3_2   1.00000000000701                       0
   2188 af_3_3_2   1.00000000000527                       0
   2189 bf_3_3_3   1.00000000000701                       0
   2190 af_3_3_3   0.999999999998258                       0
   2191 bf_3_3_4   1.00000000000501                       0
   2192 af_3_3_4   1.00000000000091                       0
   2193 bf_3_3_5   1.00000000000301                       0
   2196 af_3_4_0                 1                       0
   2197 bf_3_4_1                 1                       0
   2198 af_3_4_1                 1                       0
   2199 bf_3_4_2    0.999999999999                       0
   2200 af_3_4_2                 1                       0
   2201 bf_3_4_3                 1                       0
   2202 af_3_4_3                 1                       0
   2203 bf_3_4_4    1.000000000001                       0
   2205 bf_3_4_5                 1                       0
   2220 af_4_1_0                 1                       0
   2221 bf_4_1_1    0.999999999999                       0
   2223 bf_4_1_2    0.999999999999                       0
   2225 bf_4_1_3    0.999999999998                       0
   2227 bf_4_1_4    1.000000000001                       0
   2229 bf_4_1_5                 1                       0
   2268 af_5_0_0                 1                       0
   2270 af_5_0_1                 1                       0
   2272 af_5_0_2                 1                       0
   2273 bf_5_0_3    0.999999999999                       0
   2274 af_5_0_3    0.999999999999                       0
   2275 bf_5_0_4    0.999999999999                       0
   2276 af_5_0_4                 1                       0
   2277 bf_5_0_5                 1                       0
   2316 af_5_4_0                 1                       0
   2317 bf_5_4_1                 1                       0
   2318 af_5_4_1    1.000000000001                       0
   2319 bf_5_4_2    0.999999999999                       0
   2321 bf_5_4_3    1.000000000001                       0
   2323 bf_5_4_4                 1                       0
   2325 bf_5_4_5                 1                       0
   2340 af_6_1_0    0.999999999999                       0
   2341 bf_6_1_1                 1                       0
   2342 af_6_1_1    1.000000000001                       0
   2343 bf_6_1_2    1.000000000003                       0
   2344 af_6_1_2                 1                       0
   2345 bf_6_1_3    1.000000000002                       0
   2346 af_6_1_3                 1                       0
   2347 bf_6_1_4                 1                       0
   2348 af_6_1_4                 1                       0
   2349 bf_6_1_5    0.999999999999                       0
   2352 af_6_2_0                 1                       0
   2354 af_6_2_1    0.999999999998                       0
   2355 bf_6_2_2                 1                       0
   2356 af_6_2_2                 1                       0
   2357 bf_6_2_3    0.999999999999                       0
   2358 af_6_2_3                 1                       0
   2359 bf_6_2_4    0.999999999999                       0
   2360 af_6_2_4    1.000000000002                       0
   2361 bf_6_2_5                 1                       0
   2400 af_7_1_0                 1                       0
   2401 bf_7_1_1                 1                       0
   2402 af_7_1_1    0.999999999999                       0
   2403 bf_7_1_2                 1                       0
   2404 af_7_1_2                 1                       0
   2405 bf_7_1_3    0.999999999999                       0
   2406 af_7_1_3                 1                       0
   2407 bf_7_1_4                 1                       0
   2408 af_7_1_4                 1                       0
   2409 bf_7_1_5                 1                       0
   2412 af_7_2_0    0.999999999999                       0
   2413 bf_7_2_1    1.000000000001                       0
   2414 af_7_2_1                 1                       0
   2415 bf_7_2_2                 1                       0
   2416 af_7_2_2    0.999999999999                       0
   2417 bf_7_2_3    0.999999999998                       0
   2418 af_7_2_3                 1                       0
   2419 bf_7_2_4                 1                       0
   2420 af_7_2_4                 1                       0
   2421 bf_7_2_5                 1                       0
